24
 1 336 14
 2 115 5
 3 264 12
 4 252 12
 5 180 9
 6 133 7
 7 90 5
 8 68 4
 9 80 5
 10 30 2
 11 84 6
 12 247 19
 13 132 11
 14 220 20
 15 140 14
 16 72 8
 17 64 8
 18 56 8
 19 96 16
 20 20 4
 21 44 11
 22 18 6
 23 2 1
 24 20 20
240